examples/Knap/data/easy/input45_1.mps
NAME          input45_
ROWS
 L  R0001
 N  R0002
COLUMNS
    INT1      'MARKER'                 'INTORG'
    C0001     R0001     64
    C0001     R0002     -74
    C0002     R0001     32
    C0002     R0002     -42
    C0003     R0001     63
    C0003     R0002     -73
    C0004     R0001     62
    C0004     R0002     -72
    C0005     R0001     51
    C0005     R0002     -61
    C0006     R0001     42
    C0006     R0002     -52
    C0007     R0001     55
    C0007     R0002     -65
    C0008     R0001     57
    C0008     R0002     -67
    C0009     R0001     6
    C0009     R0002     -16
    C0010     R0001     24
    C0010     R0002     -34
    C0011     R0001     22
    C0011     R0002     -32
    C0012     R0001     15
    C0012     R0002     -25
    C0013     R0001     38
    C0013     R0002     -48
    C0014     R0001     85
    C0014     R0002     -95
    C0015     R0001     56
    C0015     R0002     -66
    C0016     R0001     38
    C0016     R0002     -48
    C0017     R0001     58
    C0017     R0002     -68
    C0018     R0001     52
    C0018     R0002     -62
    C0019     R0001     4
    C0019     R0002     -14
    C0020     R0001     92
    C0020     R0002     -102
    C0021     R0001     30
    C0021     R0002     -40
    C0022     R0001     58
    C0022     R0002     -68
    C0023     R0001     7
    C0023     R0002     -17
    C0024     R0001     67
    C0024     R0002     -77
    C0025     R0001     12
    C0025     R0002     -22
    C0026     R0001     53
    C0026     R0002     -63
    C0027     R0001     22
    C0027     R0002     -32
    C0028     R0001     28
    C0028     R0002     -38
    C0029     R0001     73
    C0029     R0002     -83
    C0030     R0001     49
    C0030     R0002     -59
    C0031     R0001     93
    C0031     R0002     -103
    C0032     R0001     37
    C0032     R0002     -47
    C0033     R0001     81
    C0033     R0002     -91
    C0034     R0001     57
    C0034     R0002     -67
    C0035     R0001     99
    C0035     R0002     -109
    C0036     R0001     32
    C0036     R0002     -42
    C0037     R0001     98
    C0037     R0002     -108
    C0038     R0001     55
    C0038     R0002     -65
    C0039     R0001     89
    C0039     R0002     -99
    C0040     R0001     5
    C0040     R0002     -15
    C0041     R0001     79
    C0041     R0002     -89
    C0042     R0001     12
    C0042     R0002     -22
    C0043     R0001     19
    C0043     R0002     -29
    C0044     R0001     17
    C0044     R0002     -27
    C0045     R0001     96
    C0045     R0002     -106
    INT1END   'MARKER'                 'INTEND'
RHS
    B         R0001     1092
BOUNDS
 UP BOUND     C0001     1
 UP BOUND     C0002     1
 UP BOUND     C0003     1
 UP BOUND     C0004     1
 UP BOUND     C0005     1
 UP BOUND     C0006     1
 UP BOUND     C0007     1
 UP BOUND     C0008     1
 UP BOUND     C0009     1
 UP BOUND     C0010     1
 UP BOUND     C0011     1
 UP BOUND     C0012     1
 UP BOUND     C0013     1
 UP BOUND     C0014     1
 UP BOUND     C0015     1
 UP BOUND     C0016     1
 UP BOUND     C0017     1
 UP BOUND     C0018     1
 UP BOUND     C0019     1
 UP BOUND     C0020     1
 UP BOUND     C0021     1
 UP BOUND     C0022     1
 UP BOUND     C0023     1
 UP BOUND     C0024     1
 UP BOUND     C0025     1
 UP BOUND     C0026     1
 UP BOUND     C0027     1
 UP BOUND     C0028     1
 UP BOUND     C0029     1
 UP BOUND     C0030     1
 UP BOUND     C0031     1
 UP BOUND     C0032     1
 UP BOUND     C0033     1
 UP BOUND     C0034     1
 UP BOUND     C0035     1
 UP BOUND     C0036     1
 UP BOUND     C0037     1
 UP BOUND     C0038     1
 UP BOUND     C0039     1
 UP BOUND     C0040     1
 UP BOUND     C0041     1
 UP BOUND     C0042     1
 UP BOUND     C0043     1
 UP BOUND     C0044     1
 UP BOUND     C0045     1
ENDATA
