examples/Knap/data/easy/input45_1.txt
ITEM 64 74
ITEM 32 42
ITEM 63 73
ITEM 62 72
ITEM 51 61
ITEM 42 52
ITEM 55 65
ITEM 57 67
ITEM 6 16
ITEM 24 34
ITEM 22 32
ITEM 15 25
ITEM 38 48
ITEM 85 95
ITEM 56 66
ITEM 38 48
ITEM 58 68
ITEM 52 62
ITEM 4 14
ITEM 92 102
ITEM 30 40
ITEM 58 68
ITEM 7 17
ITEM 67 77
ITEM 12 22
ITEM 53 63
ITEM 22 32
ITEM 28 38
ITEM 73 83
ITEM 49 59
ITEM 93 103
ITEM 37 47
ITEM 81 91
ITEM 57 67
ITEM 99 109
ITEM 32 42
ITEM 98 108
ITEM 55 65
ITEM 89 99
ITEM 5 15
ITEM 79 89
ITEM 12 22
ITEM 19 29
ITEM 17 27
ITEM 96 106
CAPACITY 1092
